language ESSENCE' 1.0
letting values be [[0, 7, 5, 3, 2, 8, 0, 6, 9], [0, 2, 0, 6, 5, 7, 8, 0, 0], [0, 0, 8, 0, 4, 0, 2, 5, 0], [2, 1, 6, 0, 0, 0, 3, 0, 0], [0, 0, 3, 2, 9, 6, 0, 0, 0], [0, 0, 7, 8, 1, 0, 0, 0, 2], [7, 4, 1, 5, 3, 0, 9, 0, 6], [6, 0, 2, 0, 8, 0, 7, 3, 0], [8, 0, 0, 0, 0, 4, 5, 0, 0]]